TCS_Benchmarks/redos_fix/snort3_output_distinct_4488_4487_16_0.txt
([^\n\r]*)(\s+)
([^\n\r]*)([sS][yY][sS][tT][eE][mM]\s+[sS][uU][rR][vV][eE][iI][lL][lL][aA][nN][cC][eE])(\s+)